# http://en.wikipedia.org/wiki/Survo_Puzzle, first example
param r := 3;
param c := 4;

param rowsums :=
   1 30
   2 18
   3 30
;

param colsums :=
   1 27
   2 16
   3 10
   4 25;

param matrix: 1 2 3 4 :=
   1  0 6 0 0
   2  8 0 0 0
   3  0 0 3 0 
;
